100
128
3
36
15
13
9
3
8
26
31
28
1
9
5
60
16
2
9
6
11
1
31
1
3
23
17
13
3
39
17
6
22
25
11
27
9
14
4
9
1
1
4
13
21
1
1
33
25
10
6
17
16
7
11
2
4
2
12
17
17
39
1
22
44
50
2
4
42
56
47
46
1
1
48
55
10
43
40
48
10
60
19
37
50
55
23
44
64
48
36
2
17
33
34
48
30
53
27
33
44
8